Cu  O 
 1.0000000000000000
     4.2675999999999998    0.0000000000000000    0.0000000000000000
     0.0000000000000000    4.2675999999999998    0.0000000000000000
     0.0000000000000000    0.0000000000000000    4.2675999999999998
  Cu   
  4
Direct
  0.0000000000000000  0.5000000000000000  0.5000000000000000
  0.5000000000000000  0.5000000000000000  0.0000000000000000
  0.5000000000000000  0.0000000000000000  0.5000000000000000
  0.0000000000000000  0.0000000000000000  0.0000000000000000